c Reduced graph for GEOM100a_0 generated by Cyril Grelier
p edge 98 969
e 1 3
e 1 8
e 1 11
e 1 13
e 1 16
e 1 22
e 1 23
e 1 24
e 1 26
e 1 27
e 1 28
e 1 29
e 1 31
e 1 32
e 1 35
e 1 36
e 1 40
e 1 43
e 1 45
e 1 46
e 1 48
e 1 50
e 1 51
e 1 54
e 1 55
e 1 74
e 1 80
e 1 89
e 2 4
e 2 5
e 2 6
e 2 7
e 2 9
e 2 10
e 2 12
e 2 14
e 2 15
e 2 17
e 2 19
e 2 20
e 2 24
e 2 25
e 2 30
e 2 34
e 2 35
e 2 38
e 2 40
e 2 41
e 2 44
e 2 46
e 2 49
e 2 50
e 2 52
e 2 54
e 2 61
e 2 65
e 3 8
e 3 11
e 3 13
e 3 16
e 3 22
e 3 23
e 3 24
e 3 26
e 3 27
e 3 28
e 3 29
e 3 31
e 3 32
e 3 35
e 3 40
e 3 43
e 3 45
e 3 46
e 3 48
e 3 50
e 3 51
e 3 54
e 3 55
e 3 67
e 3 74
e 3 80
e 3 89
e 4 5
e 4 6
e 4 7
e 4 9
e 4 10
e 4 12
e 4 14
e 4 15
e 4 17
e 4 18
e 4 19
e 4 20
e 4 24
e 4 25
e 4 30
e 4 34
e 4 35
e 4 38
e 4 40
e 4 41
e 4 46
e 4 49
e 4 50
e 4 52
e 4 54
e 4 57
e 4 65
e 5 6
e 5 7
e 5 9
e 5 10
e 5 12
e 5 14
e 5 15
e 5 17
e 5 19
e 5 20
e 5 24
e 5 25
e 5 30
e 5 34
e 5 35
e 5 38
e 5 40
e 5 41
e 5 44
e 5 46
e 5 49
e 5 52
e 5 56
e 5 57
e 5 61
e 5 65
e 6 8
e 6 9
e 6 14
e 6 15
e 6 17
e 6 24
e 6 35
e 6 36
e 6 40
e 6 41
e 6 44
e 6 46
e 6 50
e 6 52
e 6 54
e 6 61
e 6 72
e 6 74
e 6 78
e 6 79
e 6 86
e 6 91
e 6 93
e 6 95
e 7 9
e 7 10
e 7 12
e 7 15
e 7 17
e 7 18
e 7 19
e 7 20
e 7 25
e 7 30
e 7 34
e 7 38
e 7 47
e 7 49
e 7 53
e 7 56
e 7 57
e 7 58
e 7 59
e 7 65
e 7 68
e 7 70
e 7 76
e 7 77
e 8 11
e 8 13
e 8 14
e 8 16
e 8 22
e 8 23
e 8 24
e 8 26
e 8 27
e 8 28
e 8 29
e 8 31
e 8 32
e 8 35
e 8 36
e 8 40
e 8 46
e 8 48
e 8 50
e 8 51
e 8 54
e 8 74
e 8 80
e 8 89
e 9 10
e 9 12
e 9 14
e 9 15
e 9 17
e 9 18
e 9 19
e 9 20
e 9 24
e 9 25
e 9 30
e 9 34
e 9 35
e 9 38
e 9 40
e 9 41
e 9 46
e 9 49
e 9 52
e 9 56
e 9 57
e 9 65
e 10 12
e 10 18
e 10 19
e 10 20
e 10 25
e 10 30
e 10 34
e 10 35
e 10 38
e 10 47
e 10 53
e 10 56
e 10 57
e 10 58
e 10 59
e 10 66
e 10 68
e 10 69
e 10 70
e 10 76
e 10 77
e 10 97
e 11 13
e 11 16
e 11 22
e 11 23
e 11 26
e 11 27
e 11 28
e 11 29
e 11 31
e 11 32
e 11 43
e 11 45
e 11 48
e 11 51
e 11 54
e 11 55
e 11 67
e 11 74
e 11 80
e 11 85
e 11 89
e 11 90
e 11 94
e 12 18
e 12 19
e 12 20
e 12 25
e 12 30
e 12 34
e 12 38
e 12 47
e 12 53
e 12 56
e 12 57
e 12 58
e 12 59
e 12 65
e 12 68
e 12 69
e 12 70
e 12 76
e 12 77
e 12 97
e 13 16
e 13 22
e 13 23
e 13 26
e 13 27
e 13 28
e 13 29
e 13 31
e 13 32
e 13 43
e 13 45
e 13 48
e 13 50
e 13 51
e 13 54
e 13 55
e 13 60
e 13 67
e 13 85
e 13 88
e 13 90
e 13 94
e 14 15
e 14 17
e 14 24
e 14 35
e 14 36
e 14 40
e 14 41
e 14 44
e 14 46
e 14 50
e 14 52
e 14 54
e 14 61
e 14 72
e 14 78
e 14 79
e 14 86
e 14 91
e 14 93
e 14 95
e 15 17
e 15 19
e 15 24
e 15 25
e 15 30
e 15 36
e 15 40
e 15 41
e 15 44
e 15 46
e 15 49
e 15 52
e 15 61
e 15 65
e 15 72
e 15 78
e 15 79
e 15 86
e 16 22
e 16 23
e 16 24
e 16 27
e 16 28
e 16 29
e 16 31
e 16 32
e 16 36
e 16 43
e 16 45
e 16 48
e 16 50
e 16 51
e 16 54
e 16 55
e 16 67
e 16 74
e 16 80
e 16 89
e 17 19
e 17 24
e 17 25
e 17 30
e 17 34
e 17 35
e 17 40
e 17 41
e 17 44
e 17 46
e 17 49
e 17 52
e 17 61
e 17 65
e 17 72
e 17 78
e 17 79
e 18 19
e 18 20
e 18 25
e 18 30
e 18 34
e 18 38
e 18 47
e 18 53
e 18 56
e 18 57
e 18 58
e 18 59
e 18 62
e 18 66
e 18 68
e 18 69
e 18 70
e 18 76
e 18 77
e 18 97
e 19 25
e 19 30
e 19 34
e 19 38
e 19 41
e 19 47
e 19 49
e 19 53
e 19 56
e 19 57
e 19 65
e 19 68
e 19 76
e 19 77
e 20 21
e 20 22
e 20 24
e 20 26
e 20 32
e 20 35
e 20 40
e 20 46
e 20 50
e 20 54
e 20 58
e 20 59
e 20 60
e 20 62
e 20 66
e 20 70
e 21 22
e 21 26
e 21 33
e 21 37
e 21 39
e 21 42
e 21 58
e 21 59
e 21 60
e 21 62
e 21 63
e 21 64
e 21 66
e 21 71
e 21 73
e 21 75
e 21 81
e 21 82
e 21 83
e 21 84
e 21 87
e 21 92
e 21 96
e 22 23
e 22 24
e 22 26
e 22 27
e 22 31
e 22 32
e 22 35
e 22 37
e 22 40
e 22 46
e 22 50
e 22 54
e 22 60
e 22 71
e 22 87
e 22 88
e 23 26
e 23 27
e 23 28
e 23 29
e 23 31
e 23 32
e 23 43
e 23 45
e 23 48
e 23 51
e 23 55
e 23 67
e 23 85
e 23 88
e 23 90
e 23 94
e 24 32
e 24 35
e 24 36
e 24 40
e 24 44
e 24 46
e 24 50
e 24 54
e 24 74
e 25 30
e 25 34
e 25 38
e 25 41
e 25 49
e 25 52
e 25 53
e 25 56
e 25 57
e 25 65
e 25 68
e 25 77
e 26 27
e 26 29
e 26 31
e 26 32
e 26 35
e 26 37
e 26 50
e 26 54
e 26 60
e 26 64
e 26 71
e 26 84
e 26 87
e 26 88
e 27 28
e 27 29
e 27 31
e 27 32
e 27 43
e 27 45
e 27 51
e 27 55
e 27 67
e 27 85
e 27 88
e 27 90
e 27 94
e 28 29
e 28 31
e 28 43
e 28 45
e 28 48
e 28 51
e 28 55
e 28 67
e 28 74
e 28 80
e 28 85
e 28 89
e 28 90
e 28 94
e 29 31
e 29 32
e 29 43
e 29 45
e 29 48
e 29 51
e 29 55
e 29 67
e 29 85
e 29 88
e 29 90
e 29 94
e 30 34
e 30 38
e 30 41
e 30 49
e 30 52
e 30 56
e 30 57
e 30 65
e 30 68
e 30 77
e 31 32
e 31 35
e 31 43
e 31 48
e 31 50
e 31 54
e 31 60
e 31 71
e 31 87
e 31 88
e 32 35
e 32 40
e 32 46
e 32 48
e 32 50
e 32 54
e 32 60
e 32 71
e 33 37
e 33 39
e 33 42
e 33 58
e 33 59
e 33 60
e 33 62
e 33 63
e 33 64
e 33 66
e 33 69
e 33 71
e 33 73
e 33 75
e 33 81
e 33 82
e 33 83
e 33 84
e 33 87
e 33 92
e 33 96
e 34 38
e 34 47
e 34 49
e 34 53
e 34 56
e 34 57
e 34 65
e 34 68
e 34 76
e 34 77
e 35 40
e 35 46
e 35 50
e 35 54
e 35 58
e 36 40
e 36 44
e 36 46
e 36 48
e 36 61
e 36 72
e 36 74
e 36 78
e 36 79
e 36 86
e 36 89
e 36 91
e 36 93
e 36 95
e 37 39
e 37 42
e 37 60
e 37 62
e 37 63
e 37 64
e 37 71
e 37 73
e 37 75
e 37 82
e 37 83
e 37 84
e 37 87
e 37 88
e 37 92
e 37 96
e 37 98
e 38 47
e 38 49
e 38 53
e 38 56
e 38 57
e 38 65
e 38 68
e 38 76
e 38 77
e 39 42
e 39 58
e 39 59
e 39 60
e 39 62
e 39 63
e 39 64
e 39 66
e 39 69
e 39 71
e 39 73
e 39 75
e 39 81
e 39 82
e 39 83
e 39 84
e 39 92
e 39 96
e 40 44
e 40 46
e 40 50
e 40 54
e 41 44
e 41 49
e 41 52
e 41 61
e 41 65
e 41 72
e 41 78
e 41 79
e 41 86
e 41 91
e 42 58
e 42 59
e 42 60
e 42 62
e 42 63
e 42 64
e 42 66
e 42 69
e 42 71
e 42 73
e 42 75
e 42 81
e 42 82
e 42 83
e 42 84
e 42 92
e 42 96
e 43 45
e 43 48
e 43 51
e 43 55
e 43 67
e 43 80
e 43 85
e 43 89
e 43 90
e 43 94
e 44 49
e 44 52
e 44 61
e 44 72
e 44 78
e 44 79
e 44 86
e 44 91
e 44 93
e 44 95
e 45 48
e 45 51
e 45 55
e 45 67
e 45 74
e 45 80
e 45 85
e 45 89
e 45 90
e 45 94
e 46 50
e 46 54
e 47 53
e 47 56
e 47 58
e 47 59
e 47 62
e 47 66
e 47 68
e 47 69
e 47 70
e 47 76
e 47 77
e 47 81
e 47 97
e 48 51
e 48 55
e 48 67
e 48 74
e 48 80
e 48 89
e 49 52
e 49 56
e 49 57
e 49 61
e 49 65
e 49 72
e 50 54
e 50 60
e 51 55
e 51 67
e 51 74
e 51 80
e 51 85
e 51 89
e 51 90
e 52 61
e 52 65
e 52 72
e 52 78
e 52 79
e 52 86
e 52 91
e 53 56
e 53 57
e 53 58
e 53 59
e 53 66
e 53 68
e 53 69
e 53 70
e 53 76
e 53 77
e 53 97
e 55 67
e 55 80
e 55 85
e 55 89
e 55 90
e 55 94
e 56 57
e 56 65
e 56 68
e 56 76
e 56 77
e 57 65
e 57 68
e 57 76
e 57 77
e 58 59
e 58 62
e 58 63
e 58 66
e 58 69
e 58 70
e 58 81
e 59 62
e 59 63
e 59 66
e 59 69
e 59 70
e 59 81
e 59 97
e 60 62
e 60 64
e 60 71
e 60 84
e 60 87
e 60 88
e 60 98
e 61 72
e 61 78
e 61 79
e 61 86
e 61 91
e 61 93
e 61 95
e 62 63
e 62 66
e 62 69
e 62 70
e 62 81
e 62 82
e 62 83
e 63 66
e 63 69
e 63 70
e 63 73
e 63 75
e 63 81
e 63 82
e 63 83
e 63 92
e 63 96
e 64 71
e 64 73
e 64 75
e 64 82
e 64 83
e 64 84
e 64 87
e 64 88
e 64 92
e 64 96
e 64 98
e 66 69
e 66 70
e 66 81
e 66 82
e 66 83
e 67 80
e 67 85
e 67 90
e 67 94
e 68 70
e 68 76
e 68 77
e 68 97
e 69 70
e 69 76
e 69 81
e 69 97
e 70 76
e 70 81
e 70 97
e 71 73
e 71 75
e 71 84
e 71 87
e 71 88
e 71 98
e 72 78
e 72 79
e 72 86
e 72 91
e 72 93
e 72 95
e 73 75
e 73 82
e 73 83
e 73 84
e 73 87
e 73 92
e 73 96
e 73 98
e 74 80
e 74 89
e 74 93
e 74 95
e 75 82
e 75 83
e 75 84
e 75 87
e 75 92
e 75 96
e 75 98
e 76 77
e 76 97
e 77 97
e 78 79
e 78 86
e 78 91
e 78 93
e 78 95
e 79 86
e 79 91
e 79 93
e 79 95
e 80 85
e 80 89
e 81 82
e 81 83
e 81 97
e 82 83
e 82 92
e 82 96
e 83 92
e 83 96
e 84 87
e 84 88
e 84 92
e 84 98
e 85 90
e 85 94
e 86 91
e 86 93
e 86 95
e 87 88
e 87 98
e 88 98
e 90 94
e 91 93
e 91 95
e 92 96
e 93 95
